5 4 2 10
5 1 15 11 
0.39 3.38 2.76 0.42 
0.46 1.54 3.35 1.33 
2 2 2 2 
0.99 0.89 3.35 0.82 
2.42 2.11 0.13 2.5 
1 1 1 1 
1 1 1 1 
1 1 1 1 
0.38 0.33 0.94 0.61 
0.68 0.63 0.74 0.12 
0.01 0.01 0.01 0.01 
0.02 0.02 0.02 0.02 
0.03 0.03 0.03 0.03 
0.51 0.51 0.51 0.51 
1.01 1.01 1.01 1.01 
